c Created with the Wolfram Language : www.wolfram.com
c 
p edge 90 585
e 1 3
e 2 4
e 3 5
e 1 6
e 2 7
e 6 7
e 2 13
e 7 13
e 9 13
e 2 14
e 6 14
e 5 15
e 11 15
e 13 15
e 14 15
e 8 16
e 3 19
e 7 19
e 12 19
e 14 19
e 11 20
e 18 20
e 5 21
e 6 22
e 11 22
e 4 23
e 6 23
e 7 23
e 3 24
e 17 24
e 21 24
e 4 25
e 5 25
e 10 25
e 11 25
e 12 25
e 21 25
e 5 26
e 14 26
e 21 26
e 22 26
e 23 26
e 17 27
e 1 28
e 2 28
e 4 28
e 6 28
e 15 28
e 2 29
e 15 29
e 17 29
e 23 29
e 2 30
e 5 30
e 8 30
e 14 30
e 18 30
e 19 30
e 7 31
e 11 31
e 12 31
e 18 31
e 29 31
e 15 32
e 17 32
e 23 32
e 28 32
e 31 32
e 3 33
e 6 33
e 8 33
e 11 33
e 18 33
e 22 33
e 4 34
e 5 34
e 22 34
e 23 34
e 27 34
e 33 34
e 11 35
e 17 35
e 18 35
e 19 35
e 23 35
e 32 35
e 4 36
e 15 36
e 16 36
e 28 36
e 29 36
e 16 37
e 17 37
e 22 37
e 25 37
e 9 38
e 11 38
e 12 38
e 19 38
e 36 38
e 2 39
e 6 39
e 8 39
e 12 39
e 14 39
e 23 39
e 24 39
e 36 39
e 1 40
e 2 40
e 10 40
e 11 40
e 21 40
e 22 40
e 26 40
e 29 40
e 33 40
e 18 41
e 24 41
e 32 41
e 33 41
e 4 42
e 13 42
e 14 42
e 38 42
e 1 43
e 9 43
e 14 43
e 15 43
e 17 43
e 24 43
e 25 43
e 26 43
e 36 43
e 38 43
e 42 43
e 19 44
e 21 44
e 38 44
e 40 44
e 3 45
e 6 45
e 8 45
e 14 45
e 27 45
e 32 45
e 38 45
e 39 45
e 44 45
e 1 46
e 6 46
e 10 46
e 22 46
e 23 46
e 26 46
e 35 46
e 36 46
e 23 47
e 28 47
e 35 47
e 38 47
e 39 47
e 4 48
e 15 48
e 19 48
e 20 48
e 40 48
e 41 48
e 43 48
e 47 48
e 5 49
e 17 49
e 30 49
e 36 49
e 45 49
e 5 50
e 6 50
e 8 50
e 11 50
e 12 50
e 14 50
e 16 50
e 20 50
e 29 50
e 36 50
e 46 50
e 49 50
e 2 51
e 20 51
e 28 51
e 29 51
e 37 51
e 43 51
e 4 52
e 16 52
e 20 52
e 26 52
e 31 52
e 38 52
e 5 53
e 16 53
e 24 53
e 34 53
e 35 53
e 39 53
e 4 54
e 17 54
e 29 54
e 39 54
e 41 54
e 49 54
e 2 55
e 9 55
e 29 55
e 31 55
e 35 55
e 40 55
e 46 55
e 49 55
e 12 56
e 21 56
e 25 56
e 28 56
e 29 56
e 37 56
e 38 56
e 55 56
e 13 57
e 14 57
e 20 57
e 34 57
e 47 57
e 49 57
e 4 58
e 11 58
e 14 58
e 28 58
e 34 58
e 44 58
e 2 59
e 11 59
e 20 59
e 22 59
e 28 59
e 51 59
e 53 59
e 54 59
e 57 59
e 58 59
e 5 60
e 7 60
e 14 60
e 25 60
e 26 60
e 48 60
e 56 60
e 8 61
e 17 61
e 23 61
e 29 61
e 34 61
e 37 61
e 49 61
e 50 61
e 55 61
e 1 62
e 10 62
e 20 62
e 33 62
e 38 62
e 46 62
e 47 62
e 53 62
e 61 62
e 4 63
e 5 63
e 7 63
e 9 63
e 10 63
e 17 63
e 32 63
e 36 63
e 41 63
e 46 63
e 47 63
e 16 64
e 44 64
e 55 64
e 3 65
e 8 65
e 12 65
e 29 65
e 36 65
e 41 65
e 54 65
e 55 65
e 60 65
e 1 66
e 3 66
e 6 66
e 7 66
e 12 66
e 25 66
e 27 66
e 31 66
e 32 66
e 34 66
e 40 66
e 42 66
e 47 66
e 50 66
e 60 66
e 4 67
e 6 67
e 15 67
e 18 67
e 21 67
e 27 67
e 29 67
e 39 67
e 40 67
e 41 67
e 45 67
e 47 67
e 6 68
e 11 68
e 24 68
e 32 68
e 36 68
e 39 68
e 41 68
e 48 68
e 58 68
e 3 69
e 15 69
e 36 69
e 48 69
e 57 69
e 21 70
e 24 70
e 25 70
e 38 70
e 46 70
e 53 70
e 64 70
e 68 70
e 23 71
e 32 71
e 43 71
e 52 71
e 53 71
e 55 71
e 62 71
e 2 72
e 10 72
e 18 72
e 28 72
e 33 72
e 46 72
e 52 72
e 66 72
e 71 72
e 1 73
e 20 73
e 30 73
e 42 73
e 48 73
e 54 73
e 57 73
e 59 73
e 68 73
e 3 74
e 24 74
e 30 74
e 41 74
e 46 74
e 55 74
e 65 74
e 70 74
e 8 75
e 9 75
e 15 75
e 20 75
e 31 75
e 34 75
e 37 75
e 40 75
e 41 75
e 65 75
e 3 76
e 9 76
e 23 76
e 30 76
e 31 76
e 34 76
e 43 76
e 44 76
e 47 76
e 54 76
e 57 76
e 62 76
e 65 76
e 10 77
e 21 77
e 24 77
e 29 77
e 55 77
e 60 77
e 61 77
e 72 77
e 8 78
e 10 78
e 17 78
e 18 78
e 26 78
e 30 78
e 31 78
e 40 78
e 41 78
e 44 78
e 45 78
e 59 78
e 2 79
e 6 79
e 22 79
e 29 79
e 35 79
e 40 79
e 41 79
e 44 79
e 51 79
e 52 79
e 58 79
e 59 79
e 60 79
e 65 79
e 70 79
e 73 79
e 75 79
e 77 79
e 7 80
e 12 80
e 16 80
e 18 80
e 28 80
e 31 80
e 32 80
e 33 80
e 35 80
e 39 80
e 45 80
e 52 80
e 58 80
e 60 80
e 70 80
e 71 80
e 72 80
e 1 81
e 8 81
e 27 81
e 35 81
e 38 81
e 44 81
e 53 81
e 57 81
e 70 81
e 71 81
e 73 81
e 11 82
e 27 82
e 36 82
e 41 82
e 50 82
e 52 82
e 53 82
e 66 82
e 1 83
e 4 83
e 5 83
e 6 83
e 11 83
e 12 83
e 18 83
e 33 83
e 35 83
e 44 83
e 57 83
e 75 83
e 79 83
e 10 84
e 11 84
e 13 84
e 23 84
e 24 84
e 28 84
e 34 84
e 35 84
e 49 84
e 53 84
e 62 84
e 65 84
e 66 84
e 69 84
e 73 84
e 1 85
e 5 85
e 10 85
e 19 85
e 23 85
e 29 85
e 31 85
e 33 85
e 46 85
e 53 85
e 56 85
e 63 85
e 66 85
e 69 85
e 81 85
e 82 85
e 83 85
e 1 86
e 4 86
e 8 86
e 15 86
e 20 86
e 21 86
e 23 86
e 26 86
e 31 86
e 40 86
e 42 86
e 47 86
e 70 86
e 72 86
e 73 86
e 85 86
e 9 87
e 12 87
e 13 87
e 16 87
e 23 87
e 25 87
e 32 87
e 38 87
e 41 87
e 42 87
e 46 87
e 49 87
e 55 87
e 62 87
e 66 87
e 70 87
e 71 87
e 78 87
e 20 88
e 30 88
e 38 88
e 40 88
e 60 88
e 67 88
e 68 88
e 72 88
e 86 88
e 1 89
e 5 89
e 10 89
e 18 89
e 32 89
e 39 89
e 43 89
e 48 89
e 56 89
e 59 89
e 61 89
e 65 89
e 15 90
e 22 90
e 26 90
e 32 90
e 36 90
e 59 90
e 61 90
e 86 90
e 87 90
